unsat
(:cnf-encoding-aux-vars   3
 :eliminated-applications 3
 :eliminated-vars         29
 :max-memory              18.15
 :memory                  18.06
 :nlsat-conflicts         21
 :nlsat-decisions         19
 :nlsat-propagations      126
 :nlsat-stages            37
 :num-allocs              34736
 :rlimit-count            12846
 :time                    0.01
 :total-time              0.01)
